benchmark/results/graph__15-1000-0.10-02_12/graph__15-1000-0.10-02_12_QuintonOs_Benders_primal_sub.lp
\ This file has been generated by DOcplex
\ ENCODING=ISO-8859-1
\Problem name: Quinton Bounded Benders_primal_sub

Maximize
 obj: tau
Subject To
 c1: tau <= 0.000951474786
 c2: y_a0_proc_0 + y_a0_proc_1 - tau = 0
 c3: y_a0_proc_0 <= 0
 c4: y_a0_proc_1 <= 1
 c5: tau <= 0.001577287066
 c6: y_a1_proc_0 + y_a1_proc_1 - tau = 0
 c7: y_a1_proc_0 <= 0
 c8: y_a1_proc_1 <= 1
 c9: tau <= 0.001001001001
 c10: y_a2_proc_0 + y_a2_proc_1 - tau = 0
 c11: y_a2_proc_0 <= 1
 c12: y_a2_proc_1 <= 0
 c13: tau <= 0.000781860829
 c14: y_a3_proc_1 - tau = 0
 c15: y_a3_proc_1 <= 1
 c16: tau <= 0.002000000000
 c17: y_a4_proc_0 - tau = 0
 c18: y_a4_proc_0 <= 1
 c19: tau <= 0.001976284585
 c20: y_a5_proc_0 + y_a5_proc_1 - tau = 0
 c21: y_a5_proc_0 <= 0
 c22: y_a5_proc_1 <= 1
 c23: tau <= 0.001049317943
 c24: y_a6_proc_0 - tau = 0
 c25: y_a6_proc_0 <= 1
 c26: tau <= 0.001055966209
 c27: y_a7_proc_0 + y_a7_proc_1 - tau = 0
 c28: y_a7_proc_0 <= 0
 c29: y_a7_proc_1 <= 1
 c30: tau <= 0.000917431193
 c31: y_a8_proc_0 + y_a8_proc_1 - tau = 0
 c32: y_a8_proc_0 <= 1
 c33: y_a8_proc_1 <= 0
 c34: tau <= 0.001169590643
 c35: y_a9_proc_0 - tau = 0
 c36: y_a9_proc_0 <= 1
 c37: tau <= 0.003164556962
 c38: y_a10_proc_0 + y_a10_proc_1 - tau = 0
 c39: y_a10_proc_0 <= 1
 c40: y_a10_proc_1 <= 0
 c41: tau <= 0.001686340641
 c42: y_a11_proc_0 + y_a11_proc_1 - tau = 0
 c43: y_a11_proc_0 <= 0
 c44: y_a11_proc_1 <= 1
 c45: tau <= 0.001364256480
 c46: y_a12_proc_1 - tau = 0
 c47: y_a12_proc_1 <= 1
 c48: tau <= 0.001652892562
 c49: y_a13_proc_1 - tau = 0
 c50: y_a13_proc_1 <= 1
 c51: tau <= 0.001103752759
 c52: y_a14_proc_0 - tau = 0
 c53: y_a14_proc_0 <= 1
 c54: u_a0 - u_a1 - 992 y_a1_proc_0 - 634 y_a1_proc_1 >= 0
 c55: u_a2 - u_a0 - 999 y_a0_proc_0 - 1051 y_a0_proc_1 >= -1
 c56: u_a1 - u_a3 - 1279 y_a3_proc_1 >= 0
 c57: u_a4 - u_a2 - 999 y_a2_proc_0 - 1108 y_a2_proc_1 >= 0
 c58: u_a5 - u_a2 - 999 y_a2_proc_0 - 1108 y_a2_proc_1 >= 0
 c59: u_a3 - u_a6 - 953 y_a6_proc_0 >= 0
 c60: u_a0 - u_a7 - 901 y_a7_proc_0 - 947 y_a7_proc_1 >= 0
 c61: u_a7 - u_a8 - 1090 y_a8_proc_0 - 899 y_a8_proc_1 >= 0
 c62: u_a9 - u_a3 - 1279 y_a3_proc_1 >= 0
 c63: u_a8 - u_a10 - 316 y_a10_proc_0 - 1191 y_a10_proc_1 >= 0
 c64: u_a11 - u_a2 - 999 y_a2_proc_0 - 1108 y_a2_proc_1 >= 0
 c65: u_a12 - u_a0 - 999 y_a0_proc_0 - 1051 y_a0_proc_1 >= -1
 c66: u_a4 - u_a13 - 605 y_a13_proc_1 >= 0
 c67: u_a10 - u_a14 - 906 y_a14_proc_0 >= 0
 c68: u_a6 - u_a5 - 1022 y_a5_proc_0 - 506 y_a5_proc_1 >= 0
 c69: u_a9 - u_a6 - 953 y_a6_proc_0 >= 0
 c70: u_a13 - u_a5 - 1022 y_a5_proc_0 - 506 y_a5_proc_1 >= 0
 c71: u_a7 - u_a14 - 906 y_a14_proc_0 >= 0
 c72: u_a0 - u_a12 - 733 y_a12_proc_1 >= 0
 c73: u_a11 - u_a10 - 316 y_a10_proc_0 - 1191 y_a10_proc_1 >= 0
 c74: u_a1 - u_a11 - 492 y_a11_proc_0 - 593 y_a11_proc_1 >= 0
 c75: - 953 y_a6_proc_0 >= -1
 c76: u_a9 - u_a7 - 901 y_a7_proc_0 - 947 y_a7_proc_1 >= 0
 c77: - 906 y_a14_proc_0 >= -1
 c78: u_a1 - u_a0 - 999 y_a0_proc_0 >= -2559
 c79: u_a1 - u_a0 - 1051 y_a0_proc_1 >= -1
 c80: u_a0 - u_a1 - 992 y_a1_proc_0 >= -2558
 c81: u_a0 - u_a1 - 634 y_a1_proc_1 >= 0
 c82: u_a2 - u_a0 - 999 y_a0_proc_0 >= -1296
 c83: u_a2 - u_a0 - 1051 y_a0_proc_1 >= -1296
 c84: u_a0 - u_a2 - 999 y_a2_proc_0 >= -1263
 c85: u_a0 - u_a2 - 1108 y_a2_proc_1 >= -1263
 c86: u_a3 - u_a0 - 1051 y_a0_proc_1 >= -1
 c87: u_a0 - u_a3 - 1279 y_a3_proc_1 >= 0
 c88: u_a4 - u_a0 - 999 y_a0_proc_0 >= -1296
 c89: u_a0 - u_a4 - 500 y_a4_proc_0 >= -1263
 c90: u_a5 - u_a0 - 999 y_a0_proc_0 >= -2559
 c91: u_a5 - u_a0 - 1051 y_a0_proc_1 >= -1
 c92: u_a0 - u_a5 - 1022 y_a5_proc_0 >= -2558
 c93: u_a0 - u_a5 - 506 y_a5_proc_1 >= 0
 c94: u_a6 - u_a0 - 999 y_a0_proc_0 >= -1296
 c95: u_a0 - u_a6 - 953 y_a6_proc_0 >= -1263
 c96: u_a7 - u_a0 - 999 y_a0_proc_0 >= -2559
 c97: u_a7 - u_a0 - 1051 y_a0_proc_1 >= -1
 c98: u_a0 - u_a7 - 901 y_a7_proc_0 >= -2558
 c99: u_a0 - u_a7 - 947 y_a7_proc_1 >= 0
 c100: u_a8 - u_a0 - 999 y_a0_proc_0 >= -1263
 c101: u_a8 - u_a0 - 1051 y_a0_proc_1 >= -1263
 c102: u_a0 - u_a8 - 1090 y_a8_proc_0 >= -1296
 c103: u_a0 - u_a8 - 899 y_a8_proc_1 >= -1296
 c104: u_a9 - u_a0 - 999 y_a0_proc_0 >= -1263
 c105: u_a0 - u_a9 - 855 y_a9_proc_0 >= -1296
 c106: u_a10 - u_a0 - 999 y_a0_proc_0 >= -1296
 c107: u_a10 - u_a0 - 1051 y_a0_proc_1 >= -1296
 c108: u_a0 - u_a10 - 316 y_a10_proc_0 >= -1263
 c109: u_a0 - u_a10 - 1191 y_a10_proc_1 >= -1263
 c110: u_a11 - u_a0 - 999 y_a0_proc_0 >= -2559
 c111: u_a11 - u_a0 - 1051 y_a0_proc_1 >= -1
 c112: u_a0 - u_a11 - 492 y_a11_proc_0 >= -2558
 c113: u_a0 - u_a11 - 593 y_a11_proc_1 >= 0
 c114: u_a12 - u_a0 - 1051 y_a0_proc_1 >= -1
 c115: u_a0 - u_a12 - 733 y_a12_proc_1 >= 0
 c116: u_a13 - u_a0 - 1051 y_a0_proc_1 >= 0
 c117: u_a0 - u_a13 - 605 y_a13_proc_1 >= -1
 c118: u_a14 - u_a0 - 999 y_a0_proc_0 >= -1263
 c119: u_a0 - u_a14 - 906 y_a14_proc_0 >= -1296
 c120: u_a2 - u_a1 - 992 y_a1_proc_0 >= -1296
 c121: u_a2 - u_a1 - 634 y_a1_proc_1 >= -1296
 c122: u_a1 - u_a2 - 999 y_a2_proc_0 >= -1263
 c123: u_a1 - u_a2 - 1108 y_a2_proc_1 >= -1263
 c124: u_a3 - u_a1 - 634 y_a1_proc_1 >= -1
 c125: u_a1 - u_a3 - 1279 y_a3_proc_1 >= 0
 c126: u_a4 - u_a1 - 992 y_a1_proc_0 >= -1296
 c127: u_a1 - u_a4 - 500 y_a4_proc_0 >= -1263
 c128: u_a5 - u_a1 - 992 y_a1_proc_0 >= -2559
 c129: u_a5 - u_a1 - 634 y_a1_proc_1 >= -1
 c130: u_a1 - u_a5 - 1022 y_a5_proc_0 >= -2558
 c131: u_a1 - u_a5 - 506 y_a5_proc_1 >= 0
 c132: u_a6 - u_a1 - 992 y_a1_proc_0 >= -1296
 c133: u_a1 - u_a6 - 953 y_a6_proc_0 >= -1263
 c134: u_a7 - u_a1 - 992 y_a1_proc_0 >= -2558
 c135: u_a7 - u_a1 - 634 y_a1_proc_1 >= 0
 c136: u_a1 - u_a7 - 901 y_a7_proc_0 >= -2559
 c137: u_a1 - u_a7 - 947 y_a7_proc_1 >= -1
 c138: u_a8 - u_a1 - 992 y_a1_proc_0 >= -1263
 c139: u_a8 - u_a1 - 634 y_a1_proc_1 >= -1263
 c140: u_a1 - u_a8 - 1090 y_a8_proc_0 >= -1296
 c141: u_a1 - u_a8 - 899 y_a8_proc_1 >= -1296
 c142: u_a9 - u_a1 - 992 y_a1_proc_0 >= -1296
 c143: u_a1 - u_a9 - 855 y_a9_proc_0 >= -1263
 c144: u_a10 - u_a1 - 992 y_a1_proc_0 >= -1296
 c145: u_a10 - u_a1 - 634 y_a1_proc_1 >= -1296
 c146: u_a1 - u_a10 - 316 y_a10_proc_0 >= -1263
 c147: u_a1 - u_a10 - 1191 y_a10_proc_1 >= -1263
 c148: u_a11 - u_a1 - 992 y_a1_proc_0 >= -2559
 c149: u_a11 - u_a1 - 634 y_a1_proc_1 >= -1
 c150: u_a1 - u_a11 - 492 y_a11_proc_0 >= -2558
 c151: u_a1 - u_a11 - 593 y_a11_proc_1 >= 0
 c152: u_a12 - u_a1 - 634 y_a1_proc_1 >= 0
 c153: u_a1 - u_a12 - 733 y_a12_proc_1 >= -1
 c154: u_a13 - u_a1 - 634 y_a1_proc_1 >= 0
 c155: u_a1 - u_a13 - 605 y_a13_proc_1 >= -1
 c156: u_a14 - u_a1 - 992 y_a1_proc_0 >= -1296
 c157: u_a1 - u_a14 - 906 y_a14_proc_0 >= -1263
 c158: u_a3 - u_a2 - 1108 y_a2_proc_1 >= -1296
 c159: u_a2 - u_a3 - 1279 y_a3_proc_1 >= -1263
 c160: u_a4 - u_a2 - 999 y_a2_proc_0 >= 16
 c161: u_a2 - u_a4 - 500 y_a4_proc_0 >= -17
 c162: u_a5 - u_a2 - 999 y_a2_proc_0 >= -1296
 c163: u_a5 - u_a2 - 1108 y_a2_proc_1 >= -1296
 c164: u_a2 - u_a5 - 1022 y_a5_proc_0 >= -1263
 c165: u_a2 - u_a5 - 506 y_a5_proc_1 >= -1263
 c166: u_a6 - u_a2 - 999 y_a2_proc_0 >= 0
 c167: u_a2 - u_a6 - 953 y_a6_proc_0 >= -1
 c168: u_a7 - u_a2 - 999 y_a2_proc_0 >= -1296
 c169: u_a7 - u_a2 - 1108 y_a2_proc_1 >= -1296
 c170: u_a2 - u_a7 - 901 y_a7_proc_0 >= -1263
 c171: u_a2 - u_a7 - 947 y_a7_proc_1 >= -1263
 c172: u_a8 - u_a2 - 999 y_a2_proc_0 >= 0
 c173: u_a8 - u_a2 - 1108 y_a2_proc_1 >= -2558
 c174: u_a2 - u_a8 - 1090 y_a8_proc_0 >= -1
 c175: u_a2 - u_a8 - 899 y_a8_proc_1 >= -2559
 c176: u_a9 - u_a2 - 999 y_a2_proc_0 >= 16
 c177: u_a2 - u_a9 - 855 y_a9_proc_0 >= -17
 c178: u_a10 - u_a2 - 999 y_a2_proc_0 >= -1
 c179: u_a10 - u_a2 - 1108 y_a2_proc_1 >= -2559
 c180: u_a2 - u_a10 - 316 y_a10_proc_0 >= 0
 c181: u_a2 - u_a10 - 1191 y_a10_proc_1 >= -2558
 c182: u_a11 - u_a2 - 999 y_a2_proc_0 >= -1296
 c183: u_a11 - u_a2 - 1108 y_a2_proc_1 >= -1296
 c184: u_a2 - u_a11 - 492 y_a11_proc_0 >= -1263
 c185: u_a2 - u_a11 - 593 y_a11_proc_1 >= -1263
 c186: u_a12 - u_a2 - 1108 y_a2_proc_1 >= -1296
 c187: u_a2 - u_a12 - 733 y_a12_proc_1 >= -1263
 c188: u_a13 - u_a2 - 1108 y_a2_proc_1 >= -1296
 c189: u_a2 - u_a13 - 605 y_a13_proc_1 >= -1263
 c190: u_a14 - u_a2 - 999 y_a2_proc_0 >= -1
 c191: u_a2 - u_a14 - 906 y_a14_proc_0 >= 0
 c192: u_a5 - u_a3 - 1279 y_a3_proc_1 >= -1
 c193: u_a3 - u_a5 - 506 y_a5_proc_1 >= 0
 c194: u_a7 - u_a3 - 1279 y_a3_proc_1 >= 0
 c195: u_a3 - u_a7 - 947 y_a7_proc_1 >= -1
 c196: u_a8 - u_a3 - 1279 y_a3_proc_1 >= -1296
 c197: u_a3 - u_a8 - 899 y_a8_proc_1 >= -1263
 c198: u_a10 - u_a3 - 1279 y_a3_proc_1 >= -1296
 c199: u_a3 - u_a10 - 1191 y_a10_proc_1 >= -1263
 c200: u_a11 - u_a3 - 1279 y_a3_proc_1 >= -1
 c201: u_a3 - u_a11 - 593 y_a11_proc_1 >= 0
 c202: u_a12 - u_a3 - 1279 y_a3_proc_1 >= 0
 c203: u_a3 - u_a12 - 733 y_a12_proc_1 >= -1
 c204: u_a13 - u_a3 - 1279 y_a3_proc_1 >= 0
 c205: u_a3 - u_a13 - 605 y_a13_proc_1 >= -1
 c206: u_a5 - u_a4 - 500 y_a4_proc_0 >= -1296
 c207: u_a4 - u_a5 - 1022 y_a5_proc_0 >= -1263
 c208: u_a6 - u_a4 - 500 y_a4_proc_0 >= -17
 c209: u_a4 - u_a6 - 953 y_a6_proc_0 >= 16
 c210: u_a7 - u_a4 - 500 y_a4_proc_0 >= -1296
 c211: u_a4 - u_a7 - 901 y_a7_proc_0 >= -1263
 c212: u_a8 - u_a4 - 500 y_a4_proc_0 >= -16
 c213: u_a4 - u_a8 - 1090 y_a8_proc_0 >= 15
 c214: u_a9 - u_a4 - 500 y_a4_proc_0 >= 0
 c215: u_a4 - u_a9 - 855 y_a9_proc_0 >= -1
 c216: u_a10 - u_a4 - 500 y_a4_proc_0 >= -17
 c217: u_a4 - u_a10 - 316 y_a10_proc_0 >= 16
 c218: u_a11 - u_a4 - 500 y_a4_proc_0 >= -1296
 c219: u_a4 - u_a11 - 492 y_a11_proc_0 >= -1263
 c220: u_a14 - u_a4 - 500 y_a4_proc_0 >= -17
 c221: u_a4 - u_a14 - 906 y_a14_proc_0 >= 16
 c222: u_a6 - u_a5 - 1022 y_a5_proc_0 >= -1296
 c223: u_a5 - u_a6 - 953 y_a6_proc_0 >= -1263
 c224: u_a7 - u_a5 - 1022 y_a5_proc_0 >= -2558
 c225: u_a7 - u_a5 - 506 y_a5_proc_1 >= 0
 c226: u_a5 - u_a7 - 901 y_a7_proc_0 >= -2559
 c227: u_a5 - u_a7 - 947 y_a7_proc_1 >= -1
 c228: u_a8 - u_a5 - 1022 y_a5_proc_0 >= -1296
 c229: u_a8 - u_a5 - 506 y_a5_proc_1 >= -1296
 c230: u_a5 - u_a8 - 1090 y_a8_proc_0 >= -1263
 c231: u_a5 - u_a8 - 899 y_a8_proc_1 >= -1263
 c232: u_a9 - u_a5 - 1022 y_a5_proc_0 >= -1296
 c233: u_a5 - u_a9 - 855 y_a9_proc_0 >= -1263
 c234: u_a10 - u_a5 - 1022 y_a5_proc_0 >= -1296
 c235: u_a10 - u_a5 - 506 y_a5_proc_1 >= -1296
 c236: u_a5 - u_a10 - 316 y_a10_proc_0 >= -1263
 c237: u_a5 - u_a10 - 1191 y_a10_proc_1 >= -1263
 c238: u_a11 - u_a5 - 1022 y_a5_proc_0 >= -2558
 c239: u_a11 - u_a5 - 506 y_a5_proc_1 >= 0
 c240: u_a5 - u_a11 - 492 y_a11_proc_0 >= -2559
 c241: u_a5 - u_a11 - 593 y_a11_proc_1 >= -1
 c242: u_a12 - u_a5 - 506 y_a5_proc_1 >= 0
 c243: u_a5 - u_a12 - 733 y_a12_proc_1 >= -1
 c244: u_a13 - u_a5 - 506 y_a5_proc_1 >= 0
 c245: u_a5 - u_a13 - 605 y_a13_proc_1 >= -1
 c246: u_a14 - u_a5 - 1022 y_a5_proc_0 >= -1296
 c247: u_a5 - u_a14 - 906 y_a14_proc_0 >= -1263
 c248: u_a7 - u_a6 - 953 y_a6_proc_0 >= -1296
 c249: u_a6 - u_a7 - 901 y_a7_proc_0 >= -1263
 c250: u_a8 - u_a6 - 953 y_a6_proc_0 >= 0
 c251: u_a6 - u_a8 - 1090 y_a8_proc_0 >= -1
 c252: u_a9 - u_a6 - 953 y_a6_proc_0 >= 16
 c253: u_a6 - u_a9 - 855 y_a9_proc_0 >= -17
 c254: u_a10 - u_a6 - 953 y_a6_proc_0 >= -1
 c255: u_a6 - u_a10 - 316 y_a10_proc_0 >= 0
 c256: u_a11 - u_a6 - 953 y_a6_proc_0 >= -1296
 c257: u_a6 - u_a11 - 492 y_a11_proc_0 >= -1263
 c258: u_a14 - u_a6 - 953 y_a6_proc_0 >= -1
 c259: u_a6 - u_a14 - 906 y_a14_proc_0 >= 0
 c260: u_a8 - u_a7 - 901 y_a7_proc_0 >= -1296
 c261: u_a8 - u_a7 - 947 y_a7_proc_1 >= -1296
 c262: u_a7 - u_a8 - 1090 y_a8_proc_0 >= -1263
 c263: u_a7 - u_a8 - 899 y_a8_proc_1 >= -1263
 c264: u_a9 - u_a7 - 901 y_a7_proc_0 >= -1296
 c265: u_a7 - u_a9 - 855 y_a9_proc_0 >= -1263
 c266: u_a10 - u_a7 - 901 y_a7_proc_0 >= -1296
 c267: u_a10 - u_a7 - 947 y_a7_proc_1 >= -1296
 c268: u_a7 - u_a10 - 316 y_a10_proc_0 >= -1263
 c269: u_a7 - u_a10 - 1191 y_a10_proc_1 >= -1263
 c270: u_a11 - u_a7 - 901 y_a7_proc_0 >= -2559
 c271: u_a11 - u_a7 - 947 y_a7_proc_1 >= -1
 c272: u_a7 - u_a11 - 492 y_a11_proc_0 >= -2558
 c273: u_a7 - u_a11 - 593 y_a11_proc_1 >= 0
 c274: u_a12 - u_a7 - 947 y_a7_proc_1 >= -1
 c275: u_a7 - u_a12 - 733 y_a12_proc_1 >= 0
 c276: u_a13 - u_a7 - 947 y_a7_proc_1 >= 0
 c277: u_a7 - u_a13 - 605 y_a13_proc_1 >= -1
 c278: u_a14 - u_a7 - 901 y_a7_proc_0 >= -1296
 c279: u_a7 - u_a14 - 906 y_a14_proc_0 >= -1263
 c280: u_a9 - u_a8 - 1090 y_a8_proc_0 >= 16
 c281: u_a8 - u_a9 - 855 y_a9_proc_0 >= -17
 c282: u_a10 - u_a8 - 1090 y_a8_proc_0 >= -1
 c283: u_a10 - u_a8 - 899 y_a8_proc_1 >= -2559
 c284: u_a8 - u_a10 - 316 y_a10_proc_0 >= 0
 c285: u_a8 - u_a10 - 1191 y_a10_proc_1 >= -2558
 c286: u_a11 - u_a8 - 1090 y_a8_proc_0 >= -1296
 c287: u_a11 - u_a8 - 899 y_a8_proc_1 >= -1296
 c288: u_a8 - u_a11 - 492 y_a11_proc_0 >= -1263
 c289: u_a8 - u_a11 - 593 y_a11_proc_1 >= -1263
 c290: u_a12 - u_a8 - 899 y_a8_proc_1 >= -1296
 c291: u_a8 - u_a12 - 733 y_a12_proc_1 >= -1263
 c292: u_a13 - u_a8 - 899 y_a8_proc_1 >= -1296
 c293: u_a8 - u_a13 - 605 y_a13_proc_1 >= -1263
 c294: u_a14 - u_a8 - 1090 y_a8_proc_0 >= -1
 c295: u_a8 - u_a14 - 906 y_a14_proc_0 >= 0
 c296: u_a10 - u_a9 - 855 y_a9_proc_0 >= -17
 c297: u_a9 - u_a10 - 316 y_a10_proc_0 >= 16
 c298: u_a11 - u_a9 - 855 y_a9_proc_0 >= -1296
 c299: u_a9 - u_a11 - 492 y_a11_proc_0 >= -1263
 c300: u_a14 - u_a9 - 855 y_a9_proc_0 >= -17
 c301: u_a9 - u_a14 - 906 y_a14_proc_0 >= 16
 c302: u_a11 - u_a10 - 316 y_a10_proc_0 >= -1263
 c303: u_a11 - u_a10 - 1191 y_a10_proc_1 >= -1263
 c304: u_a10 - u_a11 - 492 y_a11_proc_0 >= -1296
 c305: u_a10 - u_a11 - 593 y_a11_proc_1 >= -1296
 c306: u_a12 - u_a10 - 1191 y_a10_proc_1 >= -1296
 c307: u_a10 - u_a12 - 733 y_a12_proc_1 >= -1263
 c308: u_a13 - u_a10 - 1191 y_a10_proc_1 >= -1263
 c309: u_a10 - u_a13 - 605 y_a13_proc_1 >= -1296
 c310: u_a14 - u_a10 - 316 y_a10_proc_0 >= -1
 c311: u_a10 - u_a14 - 906 y_a14_proc_0 >= 0
 c312: u_a12 - u_a11 - 593 y_a11_proc_1 >= 0
 c313: u_a11 - u_a12 - 733 y_a12_proc_1 >= -1
 c314: u_a13 - u_a11 - 593 y_a11_proc_1 >= 0
 c315: u_a11 - u_a13 - 605 y_a13_proc_1 >= -1
 c316: u_a14 - u_a11 - 492 y_a11_proc_0 >= -1296
 c317: u_a11 - u_a14 - 906 y_a14_proc_0 >= -1263
 c318: u_a13 - u_a12 - 733 y_a12_proc_1 >= 0
 c319: u_a12 - u_a13 - 605 y_a13_proc_1 >= -1

Bounds
End
